10
0 439 599 642 683 764 719 187 587 644
439 0 747 222 417 324 282 458 451 894
599 747 0 805 594 969 972 414 416 211
642 222 805 0 302 164 181 617 421 985
683 417 594 302 0 444 480 575 178 798
764 324 969 164 444 0 76 764 581 1149
719 282 972 181 480 76 0 736 600 1143
187 458 414 617 575 764 736 0 444 483
587 451 416 421 178 581 600 444 0 619
644 894 211 985 798 1149 1143 483 619 0
